language Essence 1.3

letting bot_end be [50, 123, 253, 147, 151, 287, 4, 216, 221, 290, 207, 111, 243, 242; int(1..14)]
letting bot_start be [181, 290, 138, 270, 28, 80, 136, 69, 24, 37, 67, 263, 92, 91; int(1..14)]
letting buffer_col be 2
letting buffer_row be 2
letting corridor_size be 1
letting n_shelves_col be 1
letting n_shelves_row be 20
letting shelf_col_size be 2
letting shelf_row_size be 1
